TCS_Benchmarks/redos_fix/corpus1_output_distinct_2478_2477_5_0.txt
(hrs|mins|min|h)+(hrs|mins|min|hr)+
(hrs|mins|min|h)+
h.*